\ENCODING=ISO-8859-1
\Problem name: ilog.cplex

Minimize
 obj: x1 + x2 + x3 + x4 + x5 + x6 + x7 + x8 + x9 + x10 + x11 + x12 + x13 + x14
      + x15 + x16
Subject To
 c1:  x1 + x33 + x34 + x35 + x36 + x37 + x38 + x39 + x40 + x41 + x42 + x43
      + x44 + x45 + x46 + x47 + x48 + x49 + x50 + x51 + x52 + x53 + x54 + x55
      + x56 + x57 + x58 + x59 + x60 + x61 + x62 + x63 + x64 + x65 + x66 + x67
      + x68 + x69 + x70 + x71 + x72 + x73 + x74 + x75 + x76 + x77 + x78 + x79
      + x80 + x81 + x82 + x83 + x84 + x85 + x86 + x87 + x88 + x89 + x90 + x91
      + x92 + x93 + x94 + x95 + x96 + x97 + x98 + x99 + x100 + x101 + x102
      + x103 + x104 + x105 + x106 + x107 + x108 + x109 + x110 + x111 + x112
      + x113 + x114 + x115 + x116 + x117 + x118 + x119 + x120 + x121 + x122
      + x123 + x124 + x125 + x126 + x127 + x128 + x129 + x130 + x131 + x132
      + x133 + x134 + x135 + x136 + x137 + x138 + x139 + x140 + x141 + x142
      + x143 + x144 + x145 + x146 + x147 + x148 + x149 + x150 + x151 + x152
      + x153 + x154 + x155 + x156 + x157 + x158 + x159 + x160 + x161 + x162
      + x163 + x164 + x165 + x166 + x167 + x168 + x169 + x170 + x171 + x172
      + x173 + x174 + x175 + x176 + x177 + x178 + x179 + x180 + x181 + x182
      + x183 + x184 + x185 + x186 + x187 + x188 + x189 + x190 + x191 + x192
      + x193 + x194 + x195 + x196 + x197 + x198 + x199 + x200 + x201 + x202
      + x203 + x204 + x205 + x206 + x207 + x208 + x209 + x210 + x211 + x212
      + x213 + x214 + x215 + x216 + x217 + x218 + x219 + x220 + x221 + x222
      + x223 + x224 + x225 + x226 + x227 + x228 + x229 + x230 + x231 + x232
      + x233 + x234 + x235 + x236 + x237 + x238 + x239 + x240 + x241 + x242
      + x243 + x244 + x245 + x246 + x247 + x248 + x249 + x250 + x251 + x252
      + x253 + x254 + x255 + x256 + x257 + x258  = 1
 c3:  x2 + x33 + x34 + x50 + x51 + x73 + x80 + x87 + x91 + x116 + x119 + x137
      + x138 + x144 + x173 + x201 + x204 + x206 + x211 + x213 + x214 + x217
      + x226 + x235 + x238 + x243 + x253 + x485 + x486 + x487 + x488 + x489
      + x490 + x491 + x492 + x493 + x494 + x495 + x496  = 1
 c5:  x3 + x78 + x91 + x94 + x129 + x146 + x159 + x166 + x171 + x176 + x207
      + x497 + x498 + x499 + x500 + x501 + x502 + x503 + x504 + x505 + x506
      + x507 + x508 + x509 + x510  = 1
 c7:  x4 + x38 + x50 + x57 + x61 + x62 + x66 + x72 + x75 + x81 + x84 + x92
      + x130 + x170 + x174 + x183 + x199 + x487 + x505 + x506 + x525 + x526
      + x527 + x528 + x529 + x530 + x531 + x532 + x533 + x534 + x535 + x536
      + x537 + x538 + x539 + x540 + x541 + x542 + x543 + x544 + x545 + x546
      + x547 + x548 + x549 + x550 + x551 + x552 + x553 + x554 + x555  = 1
 c9:  x5 + x36 + x38 + x50 + x52 + x58 + x64 + x66 + x69 + x72 + x75 + x82
      + x88 + x89 + x92 + x93 + x98 + x99 + x128 + x129 + x130 + x148 + x151
      + x159 + x169 + x170 + x174 + x183 + x196 + x234 + x239 + x250 + x487
      + x497 + x526 + x527 + x532 + x534 + x535 + x538 + x541 + x546 + x551
      + x587 + x588 + x589 + x590 + x591 + x592 + x593 + x594 + x595 + x596
       = 1
 c11: x6 + x42 + x44 + x46 + x47 + x53 + x63 + x66 + x68 + x70 + x72 + x74
      + x78 + x79 + x80 + x81 + x83 + x87 + x88 + x90 + x93 + x105 + x110
      + x121 + x128 + x130 + x134 + x136 + x143 + x146 + x148 + x153 + x157
      + x160 + x161 + x163 + x167 + x168 + x169 + x170 + x173 + x174 + x178
      + x183 + x184 + x187 + x189 + x194 + x199 + x202 + x206 + x209 + x210
      + x213 + x215 + x216 + x222 + x223 + x224 + x226 + x227 + x241 + x254
      + x485 + x494 + x497 + x536 + x537 + x538 + x548 + x550 + x590 + x607
      + x608 + x609 + x610 + x611 + x612  = 1
 c13: x7 + x34 + x35 + x45 + x59 + x64 + x78 + x82 + x89 + x100 + x127 + x148
      + x157 + x172 + x175 + x177 + x180 + x188 + x202 + x231 + x251 + x508
      + x542 + x619 + x620 + x621 + x622 + x623 + x624 + x625 + x626 + x627
      + x628  = 1
 c15: x8 + x48 + x54 + x61 + x62 + x71 + x89 + x94 + x97 + x125 + x166 + x168
      + x179 + x180 + x186 + x193 + x205 + x232 + x233 + x257 + x507 + x549
      + x639 + x640 + x641 + x642 + x643  = 1
 c17: x9 + x49 + x52 + x76 + x84 + x92 + x111 + x124 + x145 + x147 + x150
      + x163 + x167 + x173 + x187 + x193 + x201 + x229 + x256 + x529 + x535
      + x587 + x591 + x619 + x625 + x626 + x649 + x650 + x651 + x652 + x653
      + x654 + x655 + x656 + x657  = 1
 c19: x10 + x33 + x39 + x50 + x51 + x53 + x67 + x70 + x75 + x79 + x95 + x107
      + x113 + x114 + x133 + x135 + x152 + x158 + x175 + x181 + x182 + x188
      + x190 + x195 + x198 + x205 + x210 + x214 + x220 + x223 + x225 + x236
      + x237 + x246 + x249 + x487 + x495 + x498 + x527 + x545 + x552 + x592
      + x607 + x612 + x667 + x668 + x669 + x670 + x671 + x672 + x673  = 1
 c21: x11 + x34 + x37 + x39 + x40 + x50 + x55 + x56 + x57 + x66 + x68 + x69
      + x72 + x75 + x81 + x88 + x90 + x92 + x95 + x96 + x101 + x104 + x106
      + x109 + x110 + x121 + x122 + x125 + x128 + x129 + x130 + x132 + x133
      + x137 + x139 + x141 + x142 + x143 + x144 + x155 + x157 + x162 + x167
      + x169 + x170 + x171 + x174 + x175 + x176 + x177 + x178 + x181 + x199
      + x200 + x203 + x204 + x212 + x219 + x222 + x224 + x225 + x227 + x228
      + x230 + x235 + x236 + x237 + x240 + x242 + x247 + x248 + x258 + x493
      + x496 + x503 + x528 + x542 + x543 + x547 + x548 + x554 + x590 + x592
      + x611 + x681 + x682 + x683 + x684 + x685 + x686 + x687 + x688 + x689
      + x690  = 1
 c23: x12 + x43 + x60 + x64 + x65 + x85 + x108 + x112 + x115 + x117 + x125
      + x140 + x149 + x156 + x181 + x198 + x204 + x218 + x221 + x255 + x485
      + x498 + x503 + x506 + x527 + x530 + x533 + x539 + x553 + x619 + x655
      + x701 + x702 + x703 + x704 + x705 + x706  = 1
 c25: x13 + x39 + x41 + x45 + x46 + x60 + x67 + x76 + x77 + x80 + x95 + x96
      + x98 + x100 + x108 + x109 + x110 + x111 + x117 + x118 + x119 + x120
      + x121 + x122 + x132 + x133 + x135 + x136 + x137 + x139 + x140 + x141
      + x142 + x144 + x145 + x147 + x149 + x150 + x151 + x152 + x153 + x154
      + x155 + x172 + x182 + x184 + x185 + x195 + x197 + x200 + x208 + x488
      + x490 + x501 + x525 + x529 + x532 + x533 + x536 + x540 + x541 + x544
      + x593 + x610 + x620 + x623 + x624 + x640 + x649 + x651 + x653 + x654
      + x667 + x670 + x681 + x682 + x683 + x686 + x702 + x703 + x713 + x714
      + x715 + x716 + x717 + x718 + x719 + x720  = 1
 c27: x14 + x46 + x56 + x60 + x74 + x75 + x83 + x86 + x93 + x102 + x103 + x118
      + x120 + x131 + x132 + x146 + x154 + x164 + x171 + x186 + x191 + x197
      + x206 + x207 + x211 + x216 + x219 + x230 + x244 + x492 + x535 + x540
      + x544 + x550 + x555 + x587 + x594 + x673 + x681 + x689 + x714 + x716
      + x719 + x721 + x722 + x723  = 1
 c29: x15 + x33 + x35 + x36 + x37 + x38 + x40 + x41 + x42 + x43 + x44 + x47
      + x48 + x49 + x51 + x53 + x54 + x55 + x56 + x57 + x58 + x59 + x61 + x62
      + x63 + x65 + x68 + x70 + x71 + x73 + x74 + x77 + x79 + x81 + x83 + x84
      + x85 + x86 + x87 + x90 + x97 + x99 + x101 + x102 + x103 + x104 + x105
      + x106 + x107 + x112 + x113 + x114 + x115 + x116 + x123 + x124 + x126
      + x127 + x131 + x134 + x138 + x156 + x158 + x160 + x161 + x162 + x164
      + x165 + x189 + x190 + x191 + x192 + x194 + x203 + x486 + x489 + x491
      + x499 + x500 + x502 + x504 + x505 + x525 + x526 + x528 + x530 + x531
      + x534 + x537 + x539 + x543 + x588 + x589 + x607 + x608 + x609 + x621
      + x622 + x639 + x641 + x650 + x652 + x668 + x669 + x684 + x685 + x687
      + x688 + x701 + x704 + x705 + x713 + x721 + x722 + x727 + x728  = 1
 c31: x16 + x44 + x47 + x52 + x55 + x63 + x67 + x69 + x72 + x73 + x86 + x96
      + x109 + x123 + x126 + x139 + x142 + x163 + x165 + x168 + x176 + x179
      + x185 + x192 + x196 + x209 + x212 + x215 + x217 + x220 + x238 + x240
      + x245 + x252 + x531 + x545 + x547 + x591 + x594 + x671 + x715 + x717
      + x718 + x723 + x727 + x728  = 1
 c33: x33 + x34 + x35 + x36 + x37 + x38 + x39 + x40 + x41 + x42 + x43 + x44
      + x45 + x46 + x47 + x48 + x49 + x50 + x51 + x52 + x53 + x54 + x55 + x56
      + x57 + x58 + x59 + x60 + x61 + x62 + x63 + x64 + x65 + x66 + x67 + x68
      + x69 + x70 + x71 + x72 + x73 + x74 + x75 + x76 + x77 + x78 + x79 + x80
      + x81 + x82 + x83 + x84 + x85 + x86 + x87 + x88 + x89 + x90 + x497 + x498
      + x499 + x500 + x525 + x526 + x527 + x587 + x607 + x619 + x713 <= 1
 c35: x91 + x92 + x93 + x94 + x95 + x96 + x97 + x98 + x99 + x100 + x101 + x102
      + x103 + x104 + x105 + x106 + x107 + x108 + x109 + x110 + x111 + x112
      + x113 + x114 + x115 + x116 + x117 + x118 + x119 + x120 + x121 + x122
      + x123 + x124 + x125 + x126 + x127 + x128 + x129 + x130 + x131 + x132
      + x133 + x134 + x135 + x136 + x137 + x138 + x139 + x140 + x141 + x142
      + x143 + x144 + x145 + x146 + x147 + x148 + x501 + x502 + x503 + x504
      + x505 + x528 + x529 + x530 + x531 + x532 + x533 + x534 + x535 + x588
      + x589 + x590 + x591 + x620 + x621 + x622 + x639 + x640 + x641 + x649
      + x650 + x651 + x652 + x681 + x701 <= 1
 c37: x149 + x150 + x151 + x152 + x153 + x154 + x155 + x156 + x157 + x158
      + x159 + x160 + x161 + x162 + x163 + x164 + x165 + x166 + x167 + x168
      + x169 + x170 + x171 + x172 + x173 + x174 + x175 + x176 + x177 + x485
      + x486 + x487 + x488 + x506 + x536 + x537 + x538 + x539 + x540 + x541
      + x542 + x592 + x593 + x594 + x608 + x623 + x624 + x625 + x653 + x654
      + x667 + x668 + x669 + x682 + x683 + x684 + x685 + x702 + x703 + x704
      + x705 + x714 + x715 + x716 + x721 + x722 + x727 <= 1
 c39: x178 + x179 + x180 + x181 + x182 + x183 + x184 + x185 + x186 + x187
      + x188 + x189 + x190 + x191 + x192 + x193 + x194 + x195 + x196 + x197
      + x198 + x199 + x200 + x201 + x202 + x203 + x204 + x205 + x206 + x207
      + x489 + x490 + x491 + x507 + x508 + x543 + x544 + x609 + x610 + x626
      + x655 + x670 + x686 + x687 + x688 + x717 + x718 + x719 + x728 <= 1
 c41: x208 + x209 + x210 + x211 + x212 + x213 + x214 + x215 + x216 + x217
      + x218 + x219 + x220 + x221 + x222 + x223 + x224 + x225 + x226 + x227
      + x228 + x229 + x230 + x231 + x232 + x233 + x234 + x235 + x236 + x237
      + x238 + x239 + x240 + x492 + x493 + x494 + x495 + x496 + x509 + x545
      + x546 + x547 + x548 + x549 + x550 + x595 + x611 + x612 + x627 + x642
      + x656 + x671 + x672 + x673 + x689 + x720 + x723 <= 1
 c43: x241 + x242 + x243 + x244 + x245 + x246 + x247 + x248 + x249 + x250
      + x251 + x252 + x253 + x254 + x255 + x256 + x257 + x258 + x510 + x551
      + x552 + x553 + x554 + x555 + x596 + x628 + x643 + x657 + x690 + x706
      <= 1
Bounds
 0 <= x1 <= 1
 0 <= x2 <= 1
 0 <= x3 <= 1
 0 <= x4 <= 1
 0 <= x5 <= 1
 0 <= x6 <= 1
 0 <= x7 <= 1
 0 <= x8 <= 1
 0 <= x9 <= 1
 0 <= x10 <= 1
 0 <= x11 <= 1
 0 <= x12 <= 1
 0 <= x13 <= 1
 0 <= x14 <= 1
 0 <= x15 <= 1
 0 <= x16 <= 1
 0 <= x33 <= 1
 0 <= x34 <= 1
 0 <= x35 <= 1
 0 <= x36 <= 1
 0 <= x37 <= 1
 0 <= x38 <= 1
 0 <= x39 <= 1
 0 <= x40 <= 1
 0 <= x41 <= 1
 0 <= x42 <= 1
 0 <= x43 <= 1
 0 <= x44 <= 1
 0 <= x45 <= 1
 0 <= x46 <= 1
 0 <= x47 <= 1
 0 <= x48 <= 1
 0 <= x49 <= 1
 0 <= x50 <= 1
 0 <= x51 <= 1
 0 <= x52 <= 1
 0 <= x53 <= 1
 0 <= x54 <= 1
 0 <= x55 <= 1
 0 <= x56 <= 1
 0 <= x57 <= 1
 0 <= x58 <= 1
 0 <= x59 <= 1
 0 <= x60 <= 1
 0 <= x61 <= 1
 0 <= x62 <= 1
 0 <= x63 <= 1
 0 <= x64 <= 1
 0 <= x65 <= 1
 0 <= x66 <= 1
 0 <= x67 <= 1
 0 <= x68 <= 1
 0 <= x69 <= 1
 0 <= x70 <= 1
 0 <= x71 <= 1
 0 <= x72 <= 1
 0 <= x73 <= 1
 0 <= x74 <= 1
 0 <= x75 <= 1
 0 <= x76 <= 1
 0 <= x77 <= 1
 0 <= x78 <= 1
 0 <= x79 <= 1
 0 <= x80 <= 1
 0 <= x81 <= 1
 0 <= x82 <= 1
 0 <= x83 <= 1
 0 <= x84 <= 1
 0 <= x85 <= 1
 0 <= x86 <= 1
 0 <= x87 <= 1
 0 <= x88 <= 1
 0 <= x89 <= 1
 0 <= x90 <= 1
 0 <= x91 <= 1
 0 <= x92 <= 1
 0 <= x93 <= 1
 0 <= x94 <= 1
 0 <= x95 <= 1
 0 <= x96 <= 1
 0 <= x97 <= 1
 0 <= x98 <= 1
 0 <= x99 <= 1
 0 <= x100 <= 1
 0 <= x101 <= 1
 0 <= x102 <= 1
 0 <= x103 <= 1
 0 <= x104 <= 1
 0 <= x105 <= 1
 0 <= x106 <= 1
 0 <= x107 <= 1
 0 <= x108 <= 1
 0 <= x109 <= 1
 0 <= x110 <= 1
 0 <= x111 <= 1
 0 <= x112 <= 1
 0 <= x113 <= 1
 0 <= x114 <= 1
 0 <= x115 <= 1
 0 <= x116 <= 1
 0 <= x117 <= 1
 0 <= x118 <= 1
 0 <= x119 <= 1
 0 <= x120 <= 1
 0 <= x121 <= 1
 0 <= x122 <= 1
 0 <= x123 <= 1
 0 <= x124 <= 1
 0 <= x125 <= 1
 0 <= x126 <= 1
 0 <= x127 <= 1
 0 <= x128 <= 1
 0 <= x129 <= 1
 0 <= x130 <= 1
 0 <= x131 <= 1
 0 <= x132 <= 1
 0 <= x133 <= 1
 0 <= x134 <= 1
 0 <= x135 <= 1
 0 <= x136 <= 1
 0 <= x137 <= 1
 0 <= x138 <= 1
 0 <= x139 <= 1
 0 <= x140 <= 1
 0 <= x141 <= 1
 0 <= x142 <= 1
 0 <= x143 <= 1
 0 <= x144 <= 1
 0 <= x145 <= 1
 0 <= x146 <= 1
 0 <= x147 <= 1
 0 <= x148 <= 1
 0 <= x149 <= 1
 0 <= x150 <= 1
 0 <= x151 <= 1
 0 <= x152 <= 1
 0 <= x153 <= 1
 0 <= x154 <= 1
 0 <= x155 <= 1
 0 <= x156 <= 1
 0 <= x157 <= 1
 0 <= x158 <= 1
 0 <= x159 <= 1
 0 <= x160 <= 1
 0 <= x161 <= 1
 0 <= x162 <= 1
 0 <= x163 <= 1
 0 <= x164 <= 1
 0 <= x165 <= 1
 0 <= x166 <= 1
 0 <= x167 <= 1
 0 <= x168 <= 1
 0 <= x169 <= 1
 0 <= x170 <= 1
 0 <= x171 <= 1
 0 <= x172 <= 1
 0 <= x173 <= 1
 0 <= x174 <= 1
 0 <= x175 <= 1
 0 <= x176 <= 1
 0 <= x177 <= 1
 0 <= x178 <= 1
 0 <= x179 <= 1
 0 <= x180 <= 1
 0 <= x181 <= 1
 0 <= x182 <= 1
 0 <= x183 <= 1
 0 <= x184 <= 1
 0 <= x185 <= 1
 0 <= x186 <= 1
 0 <= x187 <= 1
 0 <= x188 <= 1
 0 <= x189 <= 1
 0 <= x190 <= 1
 0 <= x191 <= 1
 0 <= x192 <= 1
 0 <= x193 <= 1
 0 <= x194 <= 1
 0 <= x195 <= 1
 0 <= x196 <= 1
 0 <= x197 <= 1
 0 <= x198 <= 1
 0 <= x199 <= 1
 0 <= x200 <= 1
 0 <= x201 <= 1
 0 <= x202 <= 1
 0 <= x203 <= 1
 0 <= x204 <= 1
 0 <= x205 <= 1
 0 <= x206 <= 1
 0 <= x207 <= 1
 0 <= x208 <= 1
 0 <= x209 <= 1
 0 <= x210 <= 1
 0 <= x211 <= 1
 0 <= x212 <= 1
 0 <= x213 <= 1
 0 <= x214 <= 1
 0 <= x215 <= 1
 0 <= x216 <= 1
 0 <= x217 <= 1
 0 <= x218 <= 1
 0 <= x219 <= 1
 0 <= x220 <= 1
 0 <= x221 <= 1
 0 <= x222 <= 1
 0 <= x223 <= 1
 0 <= x224 <= 1
 0 <= x225 <= 1
 0 <= x226 <= 1
 0 <= x227 <= 1
 0 <= x228 <= 1
 0 <= x229 <= 1
 0 <= x230 <= 1
 0 <= x231 <= 1
 0 <= x232 <= 1
 0 <= x233 <= 1
 0 <= x234 <= 1
 0 <= x235 <= 1
 0 <= x236 <= 1
 0 <= x237 <= 1
 0 <= x238 <= 1
 0 <= x239 <= 1
 0 <= x240 <= 1
 0 <= x241 <= 1
 0 <= x242 <= 1
 0 <= x243 <= 1
 0 <= x244 <= 1
 0 <= x245 <= 1
 0 <= x246 <= 1
 0 <= x247 <= 1
 0 <= x248 <= 1
 0 <= x249 <= 1
 0 <= x250 <= 1
 0 <= x251 <= 1
 0 <= x252 <= 1
 0 <= x253 <= 1
 0 <= x254 <= 1
 0 <= x255 <= 1
 0 <= x256 <= 1
 0 <= x257 <= 1
 0 <= x258 <= 1
 0 <= x485 <= 1
 0 <= x486 <= 1
 0 <= x487 <= 1
 0 <= x488 <= 1
 0 <= x489 <= 1
 0 <= x490 <= 1
 0 <= x491 <= 1
 0 <= x492 <= 1
 0 <= x493 <= 1
 0 <= x494 <= 1
 0 <= x495 <= 1
 0 <= x496 <= 1
 0 <= x497 <= 1
 0 <= x498 <= 1
 0 <= x499 <= 1
 0 <= x500 <= 1
 0 <= x501 <= 1
 0 <= x502 <= 1
 0 <= x503 <= 1
 0 <= x504 <= 1
 0 <= x505 <= 1
 0 <= x506 <= 1
 0 <= x507 <= 1
 0 <= x508 <= 1
 0 <= x509 <= 1
 0 <= x510 <= 1
 0 <= x525 <= 1
 0 <= x526 <= 1
 0 <= x527 <= 1
 0 <= x528 <= 1
 0 <= x529 <= 1
 0 <= x530 <= 1
 0 <= x531 <= 1
 0 <= x532 <= 1
 0 <= x533 <= 1
 0 <= x534 <= 1
 0 <= x535 <= 1
 0 <= x536 <= 1
 0 <= x537 <= 1
 0 <= x538 <= 1
 0 <= x539 <= 1
 0 <= x540 <= 1
 0 <= x541 <= 1
 0 <= x542 <= 1
 0 <= x543 <= 1
 0 <= x544 <= 1
 0 <= x545 <= 1
 0 <= x546 <= 1
 0 <= x547 <= 1
 0 <= x548 <= 1
 0 <= x549 <= 1
 0 <= x550 <= 1
 0 <= x551 <= 1
 0 <= x552 <= 1
 0 <= x553 <= 1
 0 <= x554 <= 1
 0 <= x555 <= 1
 0 <= x587 <= 1
 0 <= x588 <= 1
 0 <= x589 <= 1
 0 <= x590 <= 1
 0 <= x591 <= 1
 0 <= x592 <= 1
 0 <= x593 <= 1
 0 <= x594 <= 1
 0 <= x595 <= 1
 0 <= x596 <= 1
 0 <= x607 <= 1
 0 <= x608 <= 1
 0 <= x609 <= 1
 0 <= x610 <= 1
 0 <= x611 <= 1
 0 <= x612 <= 1
 0 <= x619 <= 1
 0 <= x620 <= 1
 0 <= x621 <= 1
 0 <= x622 <= 1
 0 <= x623 <= 1
 0 <= x624 <= 1
 0 <= x625 <= 1
 0 <= x626 <= 1
 0 <= x627 <= 1
 0 <= x628 <= 1
 0 <= x639 <= 1
 0 <= x640 <= 1
 0 <= x641 <= 1
 0 <= x642 <= 1
 0 <= x643 <= 1
 0 <= x649 <= 1
 0 <= x650 <= 1
 0 <= x651 <= 1
 0 <= x652 <= 1
 0 <= x653 <= 1
 0 <= x654 <= 1
 0 <= x655 <= 1
 0 <= x656 <= 1
 0 <= x657 <= 1
 0 <= x667 <= 1
 0 <= x668 <= 1
 0 <= x669 <= 1
 0 <= x670 <= 1
 0 <= x671 <= 1
 0 <= x672 <= 1
 0 <= x673 <= 1
 0 <= x681 <= 1
 0 <= x682 <= 1
 0 <= x683 <= 1
 0 <= x684 <= 1
 0 <= x685 <= 1
 0 <= x686 <= 1
 0 <= x687 <= 1
 0 <= x688 <= 1
 0 <= x689 <= 1
 0 <= x690 <= 1
 0 <= x701 <= 1
 0 <= x702 <= 1
 0 <= x703 <= 1
 0 <= x704 <= 1
 0 <= x705 <= 1
 0 <= x706 <= 1
 0 <= x713 <= 1
 0 <= x714 <= 1
 0 <= x715 <= 1
 0 <= x716 <= 1
 0 <= x717 <= 1
 0 <= x718 <= 1
 0 <= x719 <= 1
 0 <= x720 <= 1
 0 <= x721 <= 1
 0 <= x722 <= 1
 0 <= x723 <= 1
 0 <= x727 <= 1
 0 <= x728 <= 1
Binaries
 x1  x2  x3  x4  x5  x6  x7  x8  x9  x10  x11  x12  x13  x14  x15  x16  x33 
 x34  x35  x36  x37  x38  x39  x40  x41  x42  x43  x44  x45  x46  x47  x48 
 x49  x50  x51  x52  x53  x54  x55  x56  x57  x58  x59  x60  x61  x62  x63 
 x64  x65  x66  x67  x68  x69  x70  x71  x72  x73  x74  x75  x76  x77  x78 
 x79  x80  x81  x82  x83  x84  x85  x86  x87  x88  x89  x90  x91  x92  x93 
 x94  x95  x96  x97  x98  x99  x100  x101  x102  x103  x104  x105  x106  x107 
 x108  x109  x110  x111  x112  x113  x114  x115  x116  x117  x118  x119  x120 
 x121  x122  x123  x124  x125  x126  x127  x128  x129  x130  x131  x132  x133 
 x134  x135  x136  x137  x138  x139  x140  x141  x142  x143  x144  x145  x146 
 x147  x148  x149  x150  x151  x152  x153  x154  x155  x156  x157  x158  x159 
 x160  x161  x162  x163  x164  x165  x166  x167  x168  x169  x170  x171  x172 
 x173  x174  x175  x176  x177  x178  x179  x180  x181  x182  x183  x184  x185 
 x186  x187  x188  x189  x190  x191  x192  x193  x194  x195  x196  x197  x198 
 x199  x200  x201  x202  x203  x204  x205  x206  x207  x208  x209  x210  x211 
 x212  x213  x214  x215  x216  x217  x218  x219  x220  x221  x222  x223  x224 
 x225  x226  x227  x228  x229  x230  x231  x232  x233  x234  x235  x236  x237 
 x238  x239  x240  x241  x242  x243  x244  x245  x246  x247  x248  x249  x250 
 x251  x252  x253  x254  x255  x256  x257  x258  x485  x486  x487  x488  x489 
 x490  x491  x492  x493  x494  x495  x496  x497  x498  x499  x500  x501  x502 
 x503  x504  x505  x506  x507  x508  x509  x510  x525  x526  x527  x528  x529 
 x530  x531  x532  x533  x534  x535  x536  x537  x538  x539  x540  x541  x542 
 x543  x544  x545  x546  x547  x548  x549  x550  x551  x552  x553  x554  x555 
 x587  x588  x589  x590  x591  x592  x593  x594  x595  x596  x607  x608  x609 
 x610  x611  x612  x619  x620  x621  x622  x623  x624  x625  x626  x627  x628 
 x639  x640  x641  x642  x643  x649  x650  x651  x652  x653  x654  x655  x656 
 x657  x667  x668  x669  x670  x671  x672  x673  x681  x682  x683  x684  x685 
 x686  x687  x688  x689  x690  x701  x702  x703  x704  x705  x706  x713  x714 
 x715  x716  x717  x718  x719  x720  x721  x722  x723  x727  x728 
End
